num_vertices = 12;
num_edges = 20;
edges = {
    <1, 2>,
    <1, 3>,
    <1, 5>,
    <2, 4>,
    <2, 6>,
    <3, 4>,
    <3, 7>,
    <4, 8>,
    <5, 6>,
    <5, 7>,
    <5, 9>,
    <6, 8>,
    <6, 10>,
    <7, 8>,
    <7, 11>,
    <8, 12>,
    <9, 10>,
    <9, 11>,
    <10, 12>,
    <11, 12>
};
